Zr-hcp\(0\0\1) 
1.000000 
6.4784998894	0.0000000000	0.0000000000	
-3.2392499447	5.6105454826	0.0000000000	
0.0000000000	0.0000000000	38.4472007751	
    Zr  
    48  
SelectiveDynamics 
Direct 
	0.0833299980		0.4165500100		0.0000000000	 F F F 
	0.0833299980		0.4165500100		0.1345299930	 F F T 
	0.0833299980		0.4165500100		0.2690599860	 F F T 
	0.3833302344		0.1165497736		0.4035800100	 F F T 
	0.3833302344		0.1165497736		0.5381100180	 F F T 
	0.3833302344		0.1165497736		0.6726400260	 F F T 
	0.0833299980		0.9165499810		0.0000000000	 F F F 
	0.0833299980		0.9165499810		0.1345299930	 F F T 
	0.0833299980		0.9165499810		0.2690599860	 F F T 
	0.3833302344		0.6165497446		0.4035800100	 F F T 
	0.3833302344		0.6165497446		0.5381100180	 F F T 
	0.3833302344		0.6165497446		0.6726400260	 F F T 
	0.5833299760		0.4165500100		0.0000000000	 F F F 
	0.5833299760		0.4165500100		0.1345299930	 F F T 
	0.5833299760		0.4165500100		0.2690599860	 F F T 
	0.8833302124		0.1165497736		0.4035800100	 F F T 
	0.8833302124		0.1165497736		0.5381100180	 F F T 
	0.8833302124		0.1165497736		0.6726400260	 F F T 
	0.5833299760		0.9165499810		0.0000000000	 F F F 
	0.5833299760		0.9165499810		0.1345299930	 F F T 
	0.5833299760		0.9165499810		0.2690599860	 F F T 
	0.8833302124		0.6165497446		0.4035800100	 F F T 
	0.8833302124		0.6165497446		0.5381100180	 F F T 
	0.8833302124		0.6165497446		0.6726400260	 F F T 
	0.4166699950		0.0832199980		0.0672599970	 F F T 
	0.4166699950		0.0832199980		0.2017900050	 F F T 
	0.4166699950		0.0832199980		0.3363200130	 F F T 
	0.7166702314		0.7832197616		0.4708499910	 F F T 
	0.7166702314		0.7832197616		0.6053799990	 F F T 
	0.7166702314		0.7832197616		0.7398999930	 F F F 
	0.4166699950		0.5832200050		0.0672599970	 F F T 
	0.4166699950		0.5832200050		0.2017900050	 F F T 
	0.4166699950		0.5832200050		0.3363200130	 F F T 
	0.7166702314		0.2832197686		0.4708499910	 F F T 
	0.7166702314		0.2832197686		0.6053799990	 F F T 
	0.7166702314		0.2832197686		0.7398999930	 F F F 
	0.9166700240		0.0832199980		0.0672599970	 F F T 
	0.9166700240		0.0832199980		0.2017900050	 F F T 
	0.9166700240		0.0832199980		0.3363200130	 F F T 
	0.2166702604		0.7832197616		0.4708499910	 F F T 
	0.2166702604		0.7832197616		0.6053799990	 F F T 
	0.2166702604		0.7832197616		0.7398999930	 F F F 
	0.9166700240		0.5832200050		0.0672599970	 F F T 
	0.9166700240		0.5832200050		0.2017900050	 F F T 
	0.9166700240		0.5832200050		0.3363200130	 F F T 
	0.2166702604		0.2832197686		0.4708499910	 F F T 
	0.2166702604		0.2832197686		0.6053799990	 F F T 
	0.2166702604		0.2832197686		0.7398999930	 F F F 
