Zr-hcp\(0\0\1)
1.0
        6.4784998894         0.0000000000         0.0000000000
       -3.2392499447         5.6105454826         0.0000000000
        0.0000000000         0.0000000000        38.4472007751
   Zr
   48
Direct
     0.083329998         0.416550010         0.000000000
     0.083329998         0.416550010         0.134529993
     0.083329998         0.416550010         0.269059986
     0.083329998         0.416550010         0.403580010
     0.083329998         0.416550010         0.538110018
     0.083329998         0.416550010         0.672640026
     0.083329998         0.916549981         0.000000000
     0.083329998         0.916549981         0.134529993
     0.083329998         0.916549981         0.269059986
     0.083329998         0.916549981         0.403580010
     0.083329998         0.916549981         0.538110018
     0.083329998         0.916549981         0.672640026
     0.583329976         0.416550010         0.000000000
     0.583329976         0.416550010         0.134529993
     0.583329976         0.416550010         0.269059986
     0.583329976         0.416550010         0.403580010
     0.583329976         0.416550010         0.538110018
     0.583329976         0.416550010         0.672640026
     0.583329976         0.916549981         0.000000000
     0.583329976         0.916549981         0.134529993
     0.583329976         0.916549981         0.269059986
     0.583329976         0.916549981         0.403580010
     0.583329976         0.916549981         0.538110018
     0.583329976         0.916549981         0.672640026
     0.416669995         0.083219998         0.067259997
     0.416669995         0.083219998         0.201790005
     0.416669995         0.083219998         0.336320013
     0.416669995         0.083219998         0.470849991
     0.416669995         0.083219998         0.605379999
     0.416669995         0.083219998         0.739899993
     0.416669995         0.583220005         0.067259997
     0.416669995         0.583220005         0.201790005
     0.416669995         0.583220005         0.336320013
     0.416669995         0.583220005         0.470849991
     0.416669995         0.583220005         0.605379999
     0.416669995         0.583220005         0.739899993
     0.916670024         0.083219998         0.067259997
     0.916670024         0.083219998         0.201790005
     0.916670024         0.083219998         0.336320013
     0.916670024         0.083219998         0.470849991
     0.916670024         0.083219998         0.605379999
     0.916670024         0.083219998         0.739899993
     0.916670024         0.583220005         0.067259997
     0.916670024         0.583220005         0.201790005
     0.916670024         0.583220005         0.336320013
     0.916670024         0.583220005         0.470849991
     0.916670024         0.583220005         0.605379999
     0.916670024         0.583220005         0.739899993
