Zr-hcp\(0\0\1) 
1.000000 
6.4784998894	0.0000000000	0.0000000000	
-3.2392499447	5.6105454826	0.0000000000	
0.0000000000	0.0000000000	38.4472007751	
    Zr  
    48  
SelectiveDynamics 
Direct 
	0.0833299980		0.4165500100		0.0000000000	 F F F 
	0.0833299980		0.4165500100		0.1345299930	 F F T 
	0.0833299980		0.4165500100		0.2690599860	 F F T 
	0.5583303723		0.9415496357		0.4035800100	 F F T 
	0.5583303723		0.9415496357		0.5381100180	 F F T 
	0.5583303723		0.9415496357		0.6726400260	 F F T 
	0.0833299980		0.9165499810		0.0000000000	 F F F 
	0.0833299980		0.9165499810		0.1345299930	 F F T 
	0.0833299980		0.9165499810		0.2690599860	 F F T 
	0.5583303723		0.4415496067		0.4035800100	 F F T 
	0.5583303723		0.4415496067		0.5381100180	 F F T 
	0.5583303723		0.4415496067		0.6726400260	 F F T 
	0.5833299760		0.4165500100		0.0000000000	 F F F 
	0.5833299760		0.4165500100		0.1345299930	 F F T 
	0.5833299760		0.4165500100		0.2690599860	 F F T 
	0.0583303503		0.9415496357		0.4035800100	 F F T 
	0.0583303503		0.9415496357		0.5381100180	 F F T 
	0.0583303503		0.9415496357		0.6726400260	 F F T 
	0.5833299760		0.9165499810		0.0000000000	 F F F 
	0.5833299760		0.9165499810		0.1345299930	 F F T 
	0.5833299760		0.9165499810		0.2690599860	 F F T 
	0.0583303503		0.4415496067		0.4035800100	 F F T 
	0.0583303503		0.4415496067		0.5381100180	 F F T 
	0.0583303503		0.4415496067		0.6726400260	 F F T 
	0.4166699950		0.0832199980		0.0672599970	 F F T 
	0.4166699950		0.0832199980		0.2017900050	 F F T 
	0.4166699950		0.0832199980		0.3363200130	 F F T 
	0.8916703693		0.6082196237		0.4708499910	 F F T 
	0.8916703693		0.6082196237		0.6053799990	 F F T 
	0.8916703693		0.6082196237		0.7398999930	 F F F 
	0.4166699950		0.5832200050		0.0672599970	 F F T 
	0.4166699950		0.5832200050		0.2017900050	 F F T 
	0.4166699950		0.5832200050		0.3363200130	 F F T 
	0.8916703693		0.1082196307		0.4708499910	 F F T 
	0.8916703693		0.1082196307		0.6053799990	 F F T 
	0.8916703693		0.1082196307		0.7398999930	 F F F 
	0.9166700240		0.0832199980		0.0672599970	 F F T 
	0.9166700240		0.0832199980		0.2017900050	 F F T 
	0.9166700240		0.0832199980		0.3363200130	 F F T 
	0.3916703983		0.6082196237		0.4708499910	 F F T 
	0.3916703983		0.6082196237		0.6053799990	 F F T 
	0.3916703983		0.6082196237		0.7398999930	 F F F 
	0.9166700240		0.5832200050		0.0672599970	 F F T 
	0.9166700240		0.5832200050		0.2017900050	 F F T 
	0.9166700240		0.5832200050		0.3363200130	 F F T 
	0.3916703983		0.1082196307		0.4708499910	 F F T 
	0.3916703983		0.1082196307		0.6053799990	 F F T 
	0.3916703983		0.1082196307		0.7398999930	 F F F 
