Zr-hcp\(0\0\1) 
1.000000 
6.4784998894	0.0000000000	0.0000000000	
-3.2392499447	5.6105454826	0.0000000000	
0.0000000000	0.0000000000	38.4472007751	
    Zr  
    48  
SelectiveDynamics 
Direct 
	0.0833299980		0.4165500100		0.0000000000	 F F F 
	0.0833299980		0.4165500100		0.1345299930	 F F T 
	0.0833299980		0.4165500100		0.2690599860	 F F T 
	0.4833303132		0.0165496948		0.4035800100	 F F T 
	0.4833303132		0.0165496948		0.5381100180	 F F T 
	0.4833303132		0.0165496948		0.6726400260	 F F T 
	0.0833299980		0.9165499810		0.0000000000	 F F F 
	0.0833299980		0.9165499810		0.1345299930	 F F T 
	0.0833299980		0.9165499810		0.2690599860	 F F T 
	0.4833303132		0.5165496658		0.4035800100	 F F T 
	0.4833303132		0.5165496658		0.5381100180	 F F T 
	0.4833303132		0.5165496658		0.6726400260	 F F T 
	0.5833299760		0.4165500100		0.0000000000	 F F F 
	0.5833299760		0.4165500100		0.1345299930	 F F T 
	0.5833299760		0.4165500100		0.2690599860	 F F T 
	0.9833302912		0.0165496948		0.4035800100	 F F T 
	0.9833302912		0.0165496948		0.5381100180	 F F T 
	0.9833302912		0.0165496948		0.6726400260	 F F T 
	0.5833299760		0.9165499810		0.0000000000	 F F F 
	0.5833299760		0.9165499810		0.1345299930	 F F T 
	0.5833299760		0.9165499810		0.2690599860	 F F T 
	0.9833302912		0.5165496658		0.4035800100	 F F T 
	0.9833302912		0.5165496658		0.5381100180	 F F T 
	0.9833302912		0.5165496658		0.6726400260	 F F T 
	0.4166699950		0.0832199980		0.0672599970	 F F T 
	0.4166699950		0.0832199980		0.2017900050	 F F T 
	0.4166699950		0.0832199980		0.3363200130	 F F T 
	0.8166703102		0.6832196828		0.4708499910	 F F T 
	0.8166703102		0.6832196828		0.6053799990	 F F T 
	0.8166703102		0.6832196828		0.7398999930	 F F F 
	0.4166699950		0.5832200050		0.0672599970	 F F T 
	0.4166699950		0.5832200050		0.2017900050	 F F T 
	0.4166699950		0.5832200050		0.3363200130	 F F T 
	0.8166703102		0.1832196898		0.4708499910	 F F T 
	0.8166703102		0.1832196898		0.6053799990	 F F T 
	0.8166703102		0.1832196898		0.7398999930	 F F F 
	0.9166700240		0.0832199980		0.0672599970	 F F T 
	0.9166700240		0.0832199980		0.2017900050	 F F T 
	0.9166700240		0.0832199980		0.3363200130	 F F T 
	0.3166703392		0.6832196828		0.4708499910	 F F T 
	0.3166703392		0.6832196828		0.6053799990	 F F T 
	0.3166703392		0.6832196828		0.7398999930	 F F F 
	0.9166700240		0.5832200050		0.0672599970	 F F T 
	0.9166700240		0.5832200050		0.2017900050	 F F T 
	0.9166700240		0.5832200050		0.3363200130	 F F T 
	0.3166703392		0.1832196898		0.4708499910	 F F T 
	0.3166703392		0.1832196898		0.6053799990	 F F T 
	0.3166703392		0.1832196898		0.7398999930	 F F F 
