K-Spacing Value to Generate K-Mesh: 0.040
0
Gamma
   4   4   1
0.0  0.0  0.0
